c description: There is a graph of 7 vertices with a 3-clique and a 4-coloring
c generator: CNFgen (0.9.0)
c copyright: (C) 2012-2020 Massimo Lauria <massimo.lauria@uniroma1.it>
c url: https://massimolauria.net/cnfgen
c
p cnf 70 346
-22 -23 0
-22 -24 0
-22 -25 0
-22 -26 0
-22 -27 0
-22 -28 0
-23 -24 0
-23 -25 0
-23 -26 0
-23 -27 0
-23 -28 0
-24 -25 0
-24 -26 0
-24 -27 0
-24 -28 0
-25 -26 0
-25 -27 0
-25 -28 0
-26 -27 0
-26 -28 0
-27 -28 0
22 23 24 25 26 27 28 0
-29 -30 0
-29 -31 0
-29 -32 0
-29 -33 0
-29 -34 0
-29 -35 0
-30 -31 0
-30 -32 0
-30 -33 0
-30 -34 0
-30 -35 0
-31 -32 0
-31 -33 0
-31 -34 0
-31 -35 0
-32 -33 0
-32 -34 0
-32 -35 0
-33 -34 0
-33 -35 0
-34 -35 0
29 30 31 32 33 34 35 0
-36 -37 0
-36 -38 0
-36 -39 0
-36 -40 0
-36 -41 0
-36 -42 0
-37 -38 0
-37 -39 0
-37 -40 0
-37 -41 0
-37 -42 0
-38 -39 0
-38 -40 0
-38 -41 0
-38 -42 0
-39 -40 0
-39 -41 0
-39 -42 0
-40 -41 0
-40 -42 0
-41 -42 0
36 37 38 39 40 41 42 0
-22 -29 0
-22 -36 0
-29 -36 0
-23 -30 0
-23 -37 0
-30 -37 0
-24 -31 0
-24 -38 0
-31 -38 0
-25 -32 0
-25 -39 0
-32 -39 0
-26 -33 0
-26 -40 0
-33 -40 0
-27 -34 0
-27 -41 0
-34 -41 0
-28 -35 0
-28 -42 0
-35 -42 0
1 -22 -30 0
1 -22 -37 0
1 -29 -23 0
1 -29 -37 0
1 -36 -23 0
1 -36 -30 0
2 -22 -31 0
2 -22 -38 0
2 -29 -24 0
2 -29 -38 0
2 -36 -24 0
2 -36 -31 0
3 -22 -32 0
3 -22 -39 0
3 -29 -25 0
3 -29 -39 0
3 -36 -25 0
3 -36 -32 0
4 -22 -33 0
4 -22 -40 0
4 -29 -26 0
4 -29 -40 0
4 -36 -26 0
4 -36 -33 0
5 -22 -34 0
5 -22 -41 0
5 -29 -27 0
5 -29 -41 0
5 -36 -27 0
5 -36 -34 0
6 -22 -35 0
6 -22 -42 0
6 -29 -28 0
6 -29 -42 0
6 -36 -28 0
6 -36 -35 0
7 -23 -31 0
7 -23 -38 0
7 -30 -24 0
7 -30 -38 0
7 -37 -24 0
7 -37 -31 0
8 -23 -32 0
8 -23 -39 0
8 -30 -25 0
8 -30 -39 0
8 -37 -25 0
8 -37 -32 0
9 -23 -33 0
9 -23 -40 0
9 -30 -26 0
9 -30 -40 0
9 -37 -26 0
9 -37 -33 0
10 -23 -34 0
10 -23 -41 0
10 -30 -27 0
10 -30 -41 0
10 -37 -27 0
10 -37 -34 0
11 -23 -35 0
11 -23 -42 0
11 -30 -28 0
11 -30 -42 0
11 -37 -28 0
11 -37 -35 0
12 -24 -32 0
12 -24 -39 0
12 -31 -25 0
12 -31 -39 0
12 -38 -25 0
12 -38 -32 0
13 -24 -33 0
13 -24 -40 0
13 -31 -26 0
13 -31 -40 0
13 -38 -26 0
13 -38 -33 0
14 -24 -34 0
14 -24 -41 0
14 -31 -27 0
14 -31 -41 0
14 -38 -27 0
14 -38 -34 0
15 -24 -35 0
15 -24 -42 0
15 -31 -28 0
15 -31 -42 0
15 -38 -28 0
15 -38 -35 0
16 -25 -33 0
16 -25 -40 0
16 -32 -26 0
16 -32 -40 0
16 -39 -26 0
16 -39 -33 0
17 -25 -34 0
17 -25 -41 0
17 -32 -27 0
17 -32 -41 0
17 -39 -27 0
17 -39 -34 0
18 -25 -35 0
18 -25 -42 0
18 -32 -28 0
18 -32 -42 0
18 -39 -28 0
18 -39 -35 0
19 -26 -34 0
19 -26 -41 0
19 -33 -27 0
19 -33 -41 0
19 -40 -27 0
19 -40 -34 0
20 -26 -35 0
20 -26 -42 0
20 -33 -28 0
20 -33 -42 0
20 -40 -28 0
20 -40 -35 0
21 -27 -35 0
21 -27 -42 0
21 -34 -28 0
21 -34 -42 0
21 -41 -28 0
21 -41 -35 0
-43 -44 0
-43 -45 0
-43 -46 0
-44 -45 0
-44 -46 0
-45 -46 0
43 44 45 46 0
-47 -48 0
-47 -49 0
-47 -50 0
-48 -49 0
-48 -50 0
-49 -50 0
47 48 49 50 0
-51 -52 0
-51 -53 0
-51 -54 0
-52 -53 0
-52 -54 0
-53 -54 0
51 52 53 54 0
-55 -56 0
-55 -57 0
-55 -58 0
-56 -57 0
-56 -58 0
-57 -58 0
55 56 57 58 0
-59 -60 0
-59 -61 0
-59 -62 0
-60 -61 0
-60 -62 0
-61 -62 0
59 60 61 62 0
-63 -64 0
-63 -65 0
-63 -66 0
-64 -65 0
-64 -66 0
-65 -66 0
63 64 65 66 0
-67 -68 0
-67 -69 0
-67 -70 0
-68 -69 0
-68 -70 0
-69 -70 0
67 68 69 70 0
-1 -43 -47 0
-1 -44 -48 0
-1 -45 -49 0
-1 -46 -50 0
-2 -43 -51 0
-2 -44 -52 0
-2 -45 -53 0
-2 -46 -54 0
-3 -43 -55 0
-3 -44 -56 0
-3 -45 -57 0
-3 -46 -58 0
-4 -43 -59 0
-4 -44 -60 0
-4 -45 -61 0
-4 -46 -62 0
-5 -43 -63 0
-5 -44 -64 0
-5 -45 -65 0
-5 -46 -66 0
-6 -43 -67 0
-6 -44 -68 0
-6 -45 -69 0
-6 -46 -70 0
-7 -47 -51 0
-7 -48 -52 0
-7 -49 -53 0
-7 -50 -54 0
-8 -47 -55 0
-8 -48 -56 0
-8 -49 -57 0
-8 -50 -58 0
-9 -47 -59 0
-9 -48 -60 0
-9 -49 -61 0
-9 -50 -62 0
-10 -47 -63 0
-10 -48 -64 0
-10 -49 -65 0
-10 -50 -66 0
-11 -47 -67 0
-11 -48 -68 0
-11 -49 -69 0
-11 -50 -70 0
-12 -51 -55 0
-12 -52 -56 0
-12 -53 -57 0
-12 -54 -58 0
-13 -51 -59 0
-13 -52 -60 0
-13 -53 -61 0
-13 -54 -62 0
-14 -51 -63 0
-14 -52 -64 0
-14 -53 -65 0
-14 -54 -66 0
-15 -51 -67 0
-15 -52 -68 0
-15 -53 -69 0
-15 -54 -70 0
-16 -55 -59 0
-16 -56 -60 0
-16 -57 -61 0
-16 -58 -62 0
-17 -55 -63 0
-17 -56 -64 0
-17 -57 -65 0
-17 -58 -66 0
-18 -55 -67 0
-18 -56 -68 0
-18 -57 -69 0
-18 -58 -70 0
-19 -59 -63 0
-19 -60 -64 0
-19 -61 -65 0
-19 -62 -66 0
-20 -59 -67 0
-20 -60 -68 0
-20 -61 -69 0
-20 -62 -70 0
-21 -63 -67 0
-21 -64 -68 0
-21 -65 -69 0
-21 -66 -70 0